c NeuroCodeBench 2.0 CNF formula with verdict Unsat
p cnf 34 102
-1 12 -31 -3 34 23 19 0
1 28 -20 -11 30 -18 -33 0
1 28 20 -4 33 -19 -23 32 0
1 28 20 -4 -33 -7 -24 -17 0
-1 12 31 11 34 -29 0
1 28 20 -4 33 19 -24 -13 29 11 0
1 28 20 -4 -33 -7 24 0
-1 -12 8 -25 10 -9 29 0
1 28 -20 -11 -30 0
1 28 -20 -11 30 -18 33 0
1 28 20 -4 -33 7 -26 6 0
1 28 20 -4 -33 7 26 -11 0
-1 -12 -8 27 -6 21 -19 10 23 0
-1 -12 -8 27 -6 21 19 -20 0
-1 12 -31 -3 -34 -5 -19 0
-1 -12 -8 27 -6 -21 29 -3 14 0
1 28 20 -4 33 -19 23 -30 6 0
-1 -12 8 -25 -10 2 -28 0
1 -28 9 16 18 -26 -5 21 0
1 28 20 -4 33 -19 -23 -32 -26 0
-1 -12 8 -25 10 9 0
-1 12 31 -11 -13 -7 -19 0
1 28 -20 11 14 -32 0
1 28 -20 11 14 32 0
-1 -12 -8 27 -6 -21 -29 23 0
-1 12 -31 3 21 -26 0
1 28 20 4 5 0
-1 -12 -8 -27 11 9 24 -18 7 0
-1 12 31 -11 -13 -7 19 -14 0
-1 12 -31 -3 -34 5 -25 -29 0
1 -28 9 -16 -27 31 0
1 28 20 -4 33 19 -24 -13 -29 -5 30 0
-1 12 31 -11 13 24 -30 0
1 28 20 -4 -33 7 -26 -6 12 0
-1 -12 8 -25 10 -9 -29 0
1 28 20 -4 -33 -7 -24 17 23 0
1 -28 9 -16 -27 -31 0
-1 -12 8 25 0
-1 12 31 -11 -13 7 30 0
-1 -12 -8 27 -6 -21 29 3 -2 20 0
-1 12 31 11 34 29 -20 0
1 28 20 -4 33 19 -24 13 0
1 28 20 -4 33 -19 23 -30 -6 34 29 0
-1 -12 -8 27 -6 21 -19 10 -23 0
-1 -12 -8 -27 11 9 24 -18 -7 0
-1 -12 -8 -27 11 -9 28 0
1 28 20 -4 33 19 -24 -13 -29 5 0
1 28 20 -4 33 -19 -23 -32 26 0
-1 12 -31 3 21 26 0
1 28 20 -4 33 19 -24 -13 -29 -5 -30 0
-1 -12 -8 27 -6 -21 29 -3 -14 0
-1 -12 -8 27 -6 -21 29 3 2 0
1 -28 9 16 18 26 22 0
1 -28 -9 -11 0
-1 12 -31 -3 -34 5 25 6 0
-1 -12 -8 27 -6 -21 -29 -23 0
1 28 20 -4 33 19 24 -15 0
-1 12 -31 3 -21 -28 -10 0
1 28 -20 11 -14 0
1 -28 9 16 18 -26 5 0
1 -28 9 16 -18 0
-1 12 -31 -3 -34 -5 19 0
1 28 20 -4 33 19 24 15 0
1 28 -20 -11 30 18 0
1 28 20 -4 -33 7 26 11 0
1 -28 9 16 18 26 -22 0
1 28 20 4 -5 0
-1 -12 -8 27 -6 21 19 20 0
-1 12 -31 3 -21 -28 10 0
1 28 20 -4 -33 -7 -24 17 -23 0
-1 -12 -8 27 -6 21 -19 -10 0
-1 -12 -8 -27 11 9 -24 0
-1 12 -31 -3 34 23 -19 0
1 28 20 -4 33 19 -24 -13 29 -11 0
1 -28 9 16 18 -26 -5 -21 0
-1 12 -31 -3 34 -23 -32 0
-1 12 -31 -3 34 -23 32 0
1 28 20 -4 33 -19 23 -30 -6 34 -29 0
-1 -12 8 -25 -10 -2 0
1 -28 -9 11 0
-1 -12 8 -25 -10 2 28 14 0
-1 12 31 -11 13 24 30 -18 0
1 28 20 -4 33 -19 23 30 8 0
-1 12 -31 -3 -34 5 25 -6 0
-1 -12 -8 -27 11 -9 -28 0
1 28 20 -4 33 -19 23 30 -8 0
-1 12 -31 -3 -34 5 -25 29 0
1 28 20 -4 -33 7 -26 -6 -12 0
-1 12 31 -11 -13 7 -30 0
-1 12 -31 3 -21 28 0
-1 12 31 11 34 29 20 0
-1 12 31 -11 13 -24 0
-1 -12 -8 27 -6 -21 29 3 -2 -20 0
-1 -12 -8 -27 11 9 24 18 0
-1 12 31 11 -34 0
-1 -12 -8 27 6 0
-1 -12 8 -25 -10 2 28 -14 0
-1 12 31 -11 13 24 30 18 0
-1 -12 -8 -27 -11 0
-1 12 31 -11 -13 -7 19 14 0
1 28 20 -4 33 -19 23 -30 -6 -34 0
1 -28 9 -16 27 0
